NAME: ../File/prFile/tspFile/tsp_file21.tsp
COMMENT: TSP file generated by Python
TYPE: TSP
DIMENSION: 30
EDGE_WEIGHT_TYPE: EUC_2D
NODE_COORD_SECTION
1 83 37
2 61 60
3 26 31
4 13 18
5 53 5
6 17 28
7 66 43
8 52 73
9 4 20
10 10 21
11 14 89
12 98 97
13 59 30
14 79 7
15 73 43
16 70 58
17 8 13
18 14 9
19 34 89
20 97 98
21 31 67
22 89 86
23 62 56
24 98 40
25 26 46
26 59 61
27 14 82
28 82 57
29 38 25
30 96 75
EOF
